experiments/sat_smt/run/sat-r/results/a_b.res
solved=true
solvingTime=145.7310028076171875
nActions=18