experiments/sat_smt/run/sat-r/results/a_b.out
Timesteps: 1
s UNSATISFIABLE
real 0.13
user 0.02
sys 0.00
Timesteps: 2
s UNSATISFIABLE
real 0.16
user 0.05
sys 0.00
Timesteps: 3
s UNSATISFIABLE
real 0.29
user 0.11
sys 0.01
Timesteps: 4
s UNSATISFIABLE
real 0.35
user 0.22
sys 0.01
Timesteps: 5
s UNSATISFIABLE
real 0.48
user 0.34
sys 0.01
Timesteps: 6
s UNSATISFIABLE
real 0.66
user 0.47
sys 0.02
Timesteps: 7
s UNSATISFIABLE
real 1.04
user 0.84
sys 0.01
Timesteps: 8
s UNSATISFIABLE
real 1.64
user 1.41
sys 0.02
Timesteps: 9
s UNSATISFIABLE
real 4.01
user 3.37
sys 0.03
Timesteps: 10
s UNSATISFIABLE
real 4.32
user 3.55
sys 0.04
Timesteps: 11
s UNSATISFIABLE
real 6.36
user 5.56
sys 0.04
Timesteps: 12
s UNSATISFIABLE
real 7.15
user 6.26
sys 0.04
Timesteps: 13
s UNSATISFIABLE
real 10.08
user 9.14
sys 0.05
Timesteps: 14
s UNSATISFIABLE
real 15.35
user 14.31
sys 0.05
Timesteps: 15
s UNSATISFIABLE
real 18.94
user 17.81
sys 0.06
Timesteps: 16
s UNSATISFIABLE
real 20.11
user 18.82
sys 0.09
Timesteps: 17
s UNSATISFIABLE
real 29.28
user 27.89
sys 0.09
Timesteps: 18
s SATISFIABLE
real 30.64
user 29.15
sys 0.11
